150 2792
1 6 -1
1 9 -1
1 12 1
1 13 -1
1 17 -1
1 19 1
1 22 1
1 23 1
1 25 1
1 26 -1
1 28 1
1 29 1
1 30 -1
1 32 1
1 34 1
1 35 -1
1 36 -1
1 42 -1
1 45 -1
1 51 -1
1 53 -1
1 55 -1
1 71 -1
1 74 -1
1 75 1
1 76 1
1 79 1
1 82 -1
1 83 -1
1 85 1
1 89 1
1 90 -1
1 91 1
1 92 -1
1 93 1
1 97 -1
1 100 1
1 101 -1
1 102 1
1 103 -1
1 107 -1
1 110 1
1 116 1
1 121 -1
1 124 1
1 128 1
1 130 -1
1 132 1
1 133 1
1 134 -1
1 137 1
1 138 1
1 143 -1
1 144 1
2 5 1
2 7 -1
2 11 -1
2 14 -1
2 15 -1
2 18 -1
2 26 1
2 30 -1
2 53 1
2 59 -1
2 61 -1
2 64 -1
2 71 -1
2 80 -1
2 86 1
2 89 -1
2 91 1
2 101 -1
2 104 -1
2 119 -1
2 120 1
2 124 1
2 125 -1
2 130 1
2 133 1
2 134 1
2 137 1
2 145 1
3 9 1
3 12 -1
3 13 -1
3 15 -1
3 21 1
3 29 1
3 31 1
3 36 -1
3 39 1
3 42 -1
3 45 1
3 60 -1
3 66 1
3 72 1
3 75 1
3 77 -1
3 79 1
3 84 1
3 86 -1
3 89 1
3 93 1
3 95 -1
3 101 1
3 102 1
3 104 1
3 109 1
3 110 1
3 113 1
3 115 1
3 120 -1
3 126 1
3 127 1
3 128 1
3 150 -1
4 9 1
4 10 1
4 13 -1
4 16 -1
4 18 1
4 26 -1
4 33 -1
4 37 -1
4 38 1
4 39 1
4 40 -1
4 41 1
4 42 -1
4 47 -1
4 53 1
4 57 -1
4 58 1
4 61 -1
4 62 1
4 65 1
4 67 1
4 68 -1
4 82 1
4 85 -1
4 88 1
4 92 -1
4 93 -1
4 97 -1
4 98 -1
4 102 1
4 104 1
4 110 1
4 118 -1
4 121 1
4 125 -1
4 141 -1
4 142 1
5 6 -1
5 8 1
5 9 -1
5 19 1
5 20 1
5 24 -1
5 26 -1
5 27 1
5 32 1
5 33 -1
5 35 1
5 39 1
5 47 1
5 49 1
5 51 -1
5 52 -1
5 53 -1
5 59 1
5 61 -1
5 66 1
5 67 -1
5 68 -1
5 73 -1
5 75 1
5 76 -1
5 77 1
5 78 1
5 80 1
5 83 1
5 85 -1
5 89 -1
5 102 -1
5 103 1
5 108 1
5 116 -1
5 118 1
5 119 1
5 126 1
5 128 -1
5 129 -1
5 130 -1
5 136 1
5 137 -1
5 138 -1
5 141 -1
5 147 1
5 148 1
5 149 1
6 8 1
6 13 -1
6 17 1
6 19 1
6 25 1
6 29 -1
6 31 1
6 33 -1
6 39 -1
6 43 -1
6 46 1
6 48 1
6 53 -1
6 55 -1
6 60 1
6 63 1
6 67 1
6 70 -1
6 71 -1
6 78 -1
6 82 -1
6 84 -1
6 85 1
6 89 -1
6 96 1
6 100 1
6 103 -1
6 105 1
6 107 1
6 111 1
6 117 -1
6 124 1
6 127 -1
6 129 1
6 131 1
6 134 1
6 139 -1
7 17 -1
7 18 -1
7 21 1
7 24 1
7 28 1
7 51 1
7 52 -1
7 53 1
7 56 -1
7 59 1
7 63 -1
7 65 -1
7 66 1
7 77 1
7 93 -1
7 94 -1
7 100 1
7 101 1
7 103 -1
7 105 1
7 108 1
7 111 1
7 115 1
7 116 -1
7 123 1
7 125 1
7 128 1
7 132 -1
7 133 1
7 134 -1
7 137 -1
7 143 1
7 147 1
7 149 1
7 150 -1
8 9 1
8 12 -1
8 15 -1
8 16 -1
8 17 1
8 27 -1
8 29 1
8 32 1
8 35 1
8 40 1
8 41 1
8 44 -1
8 45 1
8 46 1
8 51 -1
8 54 -1
8 56 -1
8 61 -1
8 62 -1
8 69 1
8 73 1
8 76 -1
8 82 1
8 86 -1
8 88 1
8 91 1
8 99 1
8 101 1
8 103 -1
8 106 1
8 109 1
8 111 1
8 115 -1
8 121 1
8 123 -1
8 128 -1
8 131 1
8 134 -1
8 137 1
8 140 -1
8 141 1
8 142 -1
8 144 -1
8 147 1
8 150 1
9 15 -1
9 17 1
9 24 1
9 25 -1
9 32 -1
9 33 1
9 35 1
9 38 1
9 39 -1
9 41 1
9 45 1
9 46 -1
9 54 -1
9 55 1
9 61 1
9 64 -1
9 69 -1
9 74 -1
9 76 -1
9 80 1
9 83 -1
9 84 1
9 93 -1
9 96 1
9 99 1
9 100 -1
9 104 -1
9 106 1
9 111 -1
9 115 -1
9 124 1
9 125 -1
9 126 -1
9 127 1
9 130 1
9 137 -1
9 139 1
9 140 -1
9 143 -1
10 11 1
10 20 -1
10 23 1
10 27 1
10 35 1
10 38 1
10 39 1
10 41 -1
10 42 -1
10 46 -1
10 50 1
10 55 -1
10 58 1
10 59 -1
10 61 1
10 67 1
10 68 -1
10 72 1
10 73 1
10 74 -1
10 76 1
10 80 1
10 81 1
10 84 1
10 91 1
10 92 -1
10 93 1
10 95 1
10 102 1
10 106 1
10 109 -1
10 115 1
10 117 1
10 118 1
10 120 1
10 123 -1
10 125 1
10 127 -1
10 136 -1
11 15 1
11 17 -1
11 18 1
11 20 1
11 40 -1
11 43 -1
11 44 -1
11 46 1
11 49 1
11 53 1
11 55 -1
11 56 -1
11 58 -1
11 60 -1
11 68 -1
11 73 1
11 75 1
11 80 1
11 84 1
11 100 -1
11 103 -1
11 104 -1
11 107 -1
11 108 -1
11 109 -1
11 112 -1
11 115 -1
11 124 1
11 128 1
11 131 1
11 137 -1
11 145 1
12 15 1
12 25 1
12 38 -1
12 42 1
12 43 1
12 46 -1
12 47 -1
12 54 1
12 55 1
12 58 1
12 59 -1
12 61 -1
12 66 1
12 67 -1
12 73 -1
12 92 -1
12 93 -1
12 122 1
12 124 1
12 127 1
12 129 1
12 133 1
12 137 1
12 138 1
12 139 -1
12 144 1
12 150 -1
13 15 1
13 19 1
13 22 -1
13 32 -1
13 33 1
13 34 -1
13 38 1
13 47 -1
13 56 1
13 58 -1
13 66 1
13 67 -1
13 70 -1
13 74 -1
13 75 1
13 77 -1
13 79 1
13 83 -1
13 100 -1
13 105 1
13 108 -1
13 109 1
13 111 -1
13 113 1
13 115 -1
13 116 1
13 117 -1
13 120 1
13 125 1
13 128 1
13 135 -1
13 138 -1
13 140 -1
13 145 -1
13 149 -1
14 21 -1
14 25 -1
14 29 -1
14 35 1
14 45 1
14 48 1
14 57 1
14 61 -1
14 63 -1
14 68 1
14 70 1
14 81 1
14 85 1
14 86 -1
14 89 -1
14 92 1
14 93 -1
14 95 1
14 97 -1
14 105 1
14 111 -1
14 113 1
14 114 1
14 124 1
14 126 1
14 130 1
14 143 -1
14 149 -1
15 19 1
15 23 -1
15 25 1
15 30 1
15 37 1
15 39 1
15 40 1
15 43 1
15 53 -1
15 62 1
15 63 -1
15 73 1
15 79 1
15 82 1
15 86 -1
15 87 1
15 91 1
15 95 -1
15 104 -1
15 108 1
15 111 1
15 119 -1
15 121 1
15 125 1
15 129 1
15 133 -1
15 144 -1
15 146 -1
16 22 -1
16 24 1
16 27 -1
16 31 1
16 32 -1
16 33 -1
16 34 -1
16 38 -1
16 39 -1
16 45 -1
16 50 1
16 56 1
16 60 -1
16 61 -1
16 66 -1
16 79 -1
16 80 -1
16 81 -1
16 86 -1
16 87 -1
16 90 1
16 92 1
16 94 1
16 104 1
16 107 1
16 108 1
16 112 1
16 118 -1
16 119 1
16 123 1
16 127 -1
16 128 1
16 132 1
16 133 1
16 134 -1
16 138 1
16 141 -1
16 143 1
16 149 -1
17 18 1
17 24 1
17 25 1
17 26 -1
17 34 1
17 36 1
17 40 1
17 42 -1
17 45 1
17 47 1
17 49 -1
17 55 -1
17 57 -1
17 58 -1
17 61 1
17 63 1
17 66 -1
17 68 -1
17 69 -1
17 71 1
17 74 1
17 76 -1
17 84 1
17 95 1
17 101 1
17 105 1
17 106 -1
17 108 1
17 111 -1
17 113 -1
17 115 -1
17 121 1
17 134 -1
17 147 -1
17 148 -1
18 19 1
18 29 1
18 36 1
18 41 -1
18 42 1
18 44 -1
18 46 -1
18 48 1
18 49 -1
18 55 -1
18 60 -1
18 63 1
18 66 -1
18 74 1
18 83 1
18 85 -1
18 88 1
18 94 1
18 101 -1
18 108 -1
18 112 1
18 113 1
18 114 1
18 117 -1
18 118 -1
18 119 1
18 120 1
18 122 1
18 124 1
18 127 1
18 128 -1
18 131 1
18 133 1
18 138 1
18 144 1
18 146 1
18 147 -1
18 150 1
19 27 1
19 31 1
19 35 1
19 38 -1
19 41 -1
19 47 -1
19 48 -1
19 49 -1
19 54 -1
19 55 -1
19 57 -1
19 58 1
19 64 -1
19 69 -1
19 70 1
19 71 1
19 72 -1
19 77 -1
19 78 1
19 86 1
19 90 -1
19 93 1
19 105 -1
19 111 1
19 112 1
19 114 1
19 119 -1
19 123 1
19 125 1
19 126 1
19 130 -1
19 136 -1
19 138 -1
19 142 1
19 143 1
19 146 1
19 150 -1
20 21 1
20 22 1
20 24 -1
20 30 -1
20 34 1
20 38 1
20 43 1
20 49 1
20 52 -1
20 58 1
20 61 -1
20 65 -1
20 68 -1
20 69 1
20 72 -1
20 75 -1
20 83 1
20 86 -1
20 92 -1
20 93 1
20 97 1
20 99 -1
20 103 1
20 104 1
20 111 1
20 112 -1
20 117 1
20 119 1
20 120 1
20 121 1
20 122 -1
20 124 1
20 126 1
20 141 -1
20 142 1
20 143 1
20 145 1
20 147 -1
21 42 -1
21 46 -1
21 49 -1
21 52 1
21 56 1
21 58 -1
21 64 -1
21 74 -1
21 79 1
21 80 1
21 84 -1
21 85 1
21 87 -1
21 97 -1
21 103 -1
21 107 1
21 109 1
21 119 -1
21 120 -1
21 125 -1
21 131 -1
21 132 1
21 135 -1
21 136 -1
21 143 -1
21 144 1
21 145 1
21 146 -1
21 148 1
22 23 1
22 24 -1
22 26 -1
22 29 -1
22 34 1
22 36 -1
22 39 1
22 43 1
22 45 1
22 47 1
22 54 -1
22 58 -1
22 61 -1
22 64 -1
22 69 -1
22 72 1
22 74 -1
22 87 1
22 93 -1
22 98 1
22 101 1
22 104 -1
22 108 -1
22 111 -1
22 116 1
22 121 -1
22 122 -1
22 125 1
22 131 -1
22 134 -1
22 136 1
22 143 -1
22 146 1
23 24 -1
23 25 -1
23 28 -1
23 30 1
23 32 -1
23 37 1
23 39 1
23 40 -1
23 41 1
23 43 -1
23 50 -1
23 59 1
23 61 -1
23 63 -1
23 86 -1
23 89 -1
23 95 1
23 101 -1
23 107 1
23 115 1
23 121 -1
23 124 1
23 126 1
23 127 -1
23 133 1
23 144 1
23 146 1
23 148 -1
24 26 1
24 33 -1
24 35 -1
24 43 1
24 44 1
24 50 -1
24 53 -1
24 55 1
24 57 -1
24 58 -1
24 61 -1
24 62 -1
24 66 1
24 73 -1
24 76 1
24 80 1
24 85 -1
24 90 -1
24 97 -1
24 99 1
24 100 1
24 103 1
24 106 1
24 108 -1
24 112 1
24 120 -1
24 125 -1
24 131 -1
24 134 -1
24 141 1
24 150 -1
25 26 1
25 28 1
25 38 -1
25 40 -1
25 44 1
25 45 1
25 50 -1
25 54 -1
25 58 1
25 81 1
25 83 1
25 92 1
25 94 -1
25 99 1
25 104 -1
25 107 1
25 111 -1
25 112 -1
25 119 1
25 123 -1
25 125 -1
25 129 1
25 142 1
26 27 1
26 35 1
26 39 -1
26 44 -1
26 48 1
26 50 1
26 53 1
26 57 -1
26 61 1
26 64 -1
26 65 -1
26 70 -1
26 77 -1
26 86 -1
26 101 1
26 104 1
26 105 -1
26 106 -1
26 108 1
26 110 -1
26 111 -1
26 112 1
26 115 1
26 128 1
26 140 1
26 141 1
26 142 1
26 149 -1
27 28 -1
27 30 1
27 42 -1
27 47 1
27 51 1
27 56 -1
27 61 1
27 66 1
27 73 1
27 76 1
27 77 -1
27 81 -1
27 88 -1
27 93 1
27 97 -1
27 98 1
27 100 1
27 106 -1
27 107 -1
27 109 -1
27 111 1
27 116 1
27 117 -1
27 119 -1
27 128 1
27 129 -1
27 130 1
27 131 -1
27 132 1
27 135 -1
27 142 1
27 145 1
27 150 -1
28 29 -1
28 34 -1
28 45 1
28 46 -1
28 51 -1
28 57 1
28 60 1
28 76 -1
28 77 -1
28 81 1
28 84 -1
28 85 1
28 87 1
28 88 -1
28 90 -1
28 96 1
28 99 -1
28 107 1
28 122 -1
28 123 1
28 125 -1
28 130 1
28 131 -1
28 137 1
28 143 1
28 144 -1
28 146 1
28 150 -1
29 36 1
29 46 1
29 47 -1
29 48 1
29 49 1
29 53 1
29 61 1
29 62 1
29 64 -1
29 68 1
29 76 -1
29 82 -1
29 88 -1
29 95 1
29 99 1
29 100 -1
29 103 -1
29 105 1
29 114 -1
29 115 1
29 123 -1
29 124 1
29 125 1
29 131 1
29 138 1
29 140 1
29 145 -1
29 148 1
30 34 1
30 35 -1
30 43 1
30 44 1
30 46 1
30 47 -1
30 48 1
30 49 1
30 54 -1
30 55 -1
30 56 1
30 57 1
30 62 -1
30 76 -1
30 77 -1
30 78 1
30 82 -1
30 83 1
30 84 1
30 85 1
30 89 -1
30 90 -1
30 91 -1
30 93 -1
30 101 -1
30 108 1
30 109 -1
30 118 1
30 121 -1
30 122 -1
30 129 1
30 131 -1
30 133 -1
30 134 -1
30 138 1
30 140 -1
30 143 1
30 150 1
31 34 -1
31 37 -1
31 48 1
31 50 -1
31 55 1
31 56 -1
31 59 -1
31 62 -1
31 63 -1
31 65 1
31 69 1
31 74 1
31 75 1
31 77 1
31 79 -1
31 84 -1
31 85 -1
31 95 -1
31 99 -1
31 109 1
31 115 -1
31 120 -1
31 126 -1
31 130 1
31 135 1
31 138 1
31 140 1
31 143 -1
32 33 -1
32 34 -1
32 36 -1
32 39 -1
32 41 -1
32 43 1
32 48 1
32 50 1
32 51 -1
32 53 -1
32 54 -1
32 56 -1
32 64 1
32 65 1
32 66 -1
32 70 -1
32 73 -1
32 74 -1
32 83 -1
32 90 1
32 99 -1
32 100 -1
32 101 1
32 103 1
32 115 -1
32 118 -1
32 120 -1
32 121 -1
32 124 -1
32 125 1
32 127 1
32 133 -1
32 135 1
32 147 -1
33 37 1
33 43 1
33 44 -1
33 53 1
33 54 1
33 56 1
33 60 1
33 62 1
33 66 -1
33 75 1
33 79 -1
33 80 1
33 86 -1
33 97 -1
33 98 -1
33 100 1
33 105 1
33 106 -1
33 126 -1
33 128 1
33 130 1
33 141 -1
33 146 1
33 147 -1
34 35 -1
34 36 -1
34 41 1
34 45 1
34 47 1
34 51 1
34 59 -1
34 65 -1
34 68 -1
34 70 1
34 73 1
34 75 1
34 78 -1
34 79 -1
34 80 1
34 82 1
34 88 -1
34 90 1
34 95 1
34 96 1
34 99 1
34 103 1
34 111 1
34 113 1
34 114 -1
34 116 -1
34 118 1
34 119 1
34 120 1
34 125 -1
34 129 -1
34 130 -1
34 133 -1
34 137 -1
34 139 -1
34 142 1
34 144 -1
34 148 -1
35 47 1
35 53 -1
35 55 -1
35 56 -1
35 71 -1
35 74 -1
35 77 -1
35 84 1
35 91 1
35 97 -1
35 99 -1
35 100 -1
35 108 -1
35 113 1
35 114 -1
35 116 -1
35 119 -1
35 125 1
35 131 -1
35 134 -1
35 138 1
35 139 1
35 148 1
35 149 -1
35 150 1
36 41 1
36 43 -1
36 52 1
36 53 1
36 55 1
36 65 1
36 68 -1
36 69 1
36 72 1
36 73 1
36 77 1
36 83 -1
36 84 -1
36 90 -1
36 91 1
36 92 -1
36 93 -1
36 94 -1
36 95 1
36 96 1
36 97 1
36 104 -1
36 112 1
36 115 1
36 125 -1
36 127 1
36 131 -1
36 133 -1
36 139 -1
36 141 1
36 146 -1
36 148 1
36 149 -1
37 38 -1
37 41 1
37 42 -1
37 43 1
37 44 1
37 49 -1
37 50 1
37 51 -1
37 54 1
37 59 -1
37 65 1
37 72 -1
37 73 1
37 76 -1
37 79 -1
37 82 -1
37 83 -1
37 84 -1
37 93 1
37 100 1
37 112 -1
37 119 1
37 129 -1
37 132 -1
37 134 1
37 145 -1
37 146 -1
38 43 1
38 44 -1
38 45 -1
38 46 1
38 50 -1
38 55 1
38 63 -1
38 72 -1
38 79 -1
38 80 1
38 83 1
38 85 1
38 86 -1
38 88 -1
38 91 1
38 95 1
38 96 -1
38 105 -1
38 106 1
38 107 1
38 108 -1
38 114 -1
38 117 1
38 118 -1
38 123 1
38 124 1
38 126 1
38 131 -1
38 132 -1
38 134 1
38 135 1
38 136 -1
38 144 1
38 145 1
38 150 1
39 40 -1
39 44 1
39 48 -1
39 52 1
39 60 -1
39 68 1
39 70 1
39 76 -1
39 77 1
39 79 1
39 87 1
39 88 -1
39 92 1
39 95 -1
39 96 -1
39 100 1
39 101 -1
39 108 -1
39 109 1
39 115 1
39 117 1
39 119 -1
39 127 1
39 130 -1
39 134 -1
39 142 -1
39 143 1
39 145 -1
39 146 1
39 149 1
40 42 -1
40 51 -1
40 52 -1
40 57 -1
40 65 1
40 67 1
40 69 -1
40 72 -1
40 78 -1
40 80 1
40 84 1
40 90 1
40 91 1
40 93 1
40 95 -1
40 99 1
40 102 -1
40 104 -1
40 105 1
40 109 -1
40 111 -1
40 116 1
40 117 -1
40 118 1
40 124 -1
40 127 -1
40 130 1
40 132 1
40 141 -1
40 146 -1
40 148 -1
41 42 -1
41 46 -1
41 50 1
41 51 1
41 53 1
41 59 1
41 60 1
41 62 1
41 63 1
41 66 1
41 70 -1
41 73 1
41 76 1
41 89 -1
41 102 -1
41 103 1
41 105 1
41 109 -1
41 115 -1
41 119 -1
41 120 1
41 124 1
41 125 1
41 128 1
41 135 -1
41 136 -1
41 138 -1
41 142 -1
41 148 1
41 150 1
42 43 -1
42 44 1
42 47 -1
42 48 -1
42 56 1
42 57 1
42 58 1
42 60 1
42 68 -1
42 73 -1
42 77 1
42 79 1
42 83 1
42 85 1
42 86 1
42 87 -1
42 93 -1
42 97 1
42 101 1
42 102 1
42 105 1
42 110 -1
42 117 -1
42 123 -1
42 127 1
42 131 1
42 133 -1
42 144 -1
42 150 -1
43 44 1
43 51 -1
43 54 1
43 60 -1
43 61 -1
43 76 1
43 90 1
43 92 1
43 95 -1
43 101 -1
43 102 -1
43 108 1
43 112 -1
43 120 -1
43 121 -1
43 125 -1
43 135 1
43 138 1
43 144 1
43 148 -1
43 149 -1
44 45 1
44 50 1
44 52 -1
44 53 1
44 61 1
44 67 1
44 70 1
44 77 -1
44 78 -1
44 90 1
44 99 1
44 101 1
44 109 -1
44 110 -1
44 112 1
44 116 1
44 122 -1
44 126 -1
44 127 1
44 129 -1
44 134 1
44 137 1
44 141 -1
44 142 1
44 147 1
44 149 1
45 46 -1
45 56 -1
45 57 -1
45 63 -1
45 65 1
45 66 -1
45 67 1
45 70 1
45 71 1
45 72 -1
45 75 1
45 85 -1
45 96 -1
45 98 -1
45 104 -1
45 108 -1
45 109 1
45 111 -1
45 116 -1
45 117 1
45 120 -1
45 122 1
45 127 -1
45 128 1
45 134 1
45 136 -1
45 141 1
45 148 -1
46 48 1
46 53 -1
46 58 -1
46 61 -1
46 64 -1
46 70 -1
46 74 -1
46 77 1
46 79 -1
46 84 -1
46 85 -1
46 89 -1
46 90 -1
46 91 -1
46 92 -1
46 94 1
46 97 1
46 98 1
46 101 1
46 113 1
46 114 1
46 115 -1
46 116 -1
46 117 1
46 122 1
46 126 -1
46 136 -1
46 137 1
46 144 1
46 148 -1
47 55 1
47 56 -1
47 60 1
47 61 1
47 64 1
47 70 -1
47 71 1
47 72 -1
47 83 1
47 85 -1
47 89 1
47 94 -1
47 109 1
47 113 -1
47 124 -1
47 126 -1
47 131 1
47 133 -1
47 136 -1
47 140 -1
48 50 1
48 52 1
48 53 -1
48 56 -1
48 57 -1
48 59 1
48 62 -1
48 64 -1
48 69 -1
48 70 -1
48 79 1
48 81 1
48 83 1
48 87 -1
48 89 -1
48 91 -1
48 103 -1
48 105 -1
48 107 1
48 111 1
48 113 -1
48 116 1
48 119 1
48 120 -1
48 121 1
48 122 -1
48 127 1
48 131 -1
48 144 1
48 146 -1
49 50 -1
49 53 -1
49 54 -1
49 56 1
49 60 1
49 66 1
49 67 1
49 72 -1
49 84 -1
49 91 -1
49 95 1
49 99 -1
49 100 -1
49 105 1
49 122 -1
49 127 -1
49 129 1
49 133 1
49 134 -1
49 135 -1
49 137 1
49 141 -1
49 142 -1
49 145 1
49 148 1
49 150 1
50 52 1
50 55 -1
50 65 1
50 67 1
50 68 -1
50 73 -1
50 74 1
50 77 1
50 82 1
50 84 -1
50 89 -1
50 90 1
50 91 1
50 93 -1
50 95 -1
50 120 1
50 127 1
50 130 -1
50 131 1
50 149 -1
51 52 1
51 55 1
51 57 -1
51 68 1
51 72 1
51 73 1
51 87 1
51 90 -1
51 93 -1
51 98 -1
51 107 -1
51 110 1
51 111 -1
51 113 -1
51 117 -1
51 118 1
51 120 -1
51 122 1
51 123 1
51 124 -1
51 131 -1
51 144 -1
51 147 -1
51 148 1
51 150 1
52 53 1
52 54 -1
52 61 1
52 75 1
52 76 -1
52 78 1
52 84 -1
52 86 1
52 90 1
52 101 -1
52 108 -1
52 109 1
52 110 -1
52 115 1
52 116 -1
52 117 1
52 123 1
52 132 -1
52 133 -1
52 145 -1
52 148 1
53 54 -1
53 60 -1
53 64 -1
53 65 1
53 70 1
53 74 -1
53 75 1
53 76 -1
53 81 -1
53 84 -1
53 95 -1
53 100 -1
53 102 -1
53 107 -1
53 109 1
53 127 -1
53 139 1
53 142 -1
53 148 1
54 59 -1
54 63 -1
54 64 -1
54 65 -1
54 66 -1
54 72 1
54 73 -1
54 74 1
54 78 -1
54 79 -1
54 82 1
54 88 -1
54 94 -1
54 99 -1
54 108 -1
54 114 1
54 118 1
54 121 -1
54 123 -1
55 62 -1
55 64 1
55 74 1
55 79 -1
55 80 1
55 82 1
55 93 -1
55 110 1
55 119 1
55 128 1
55 143 1
56 60 1
56 61 1
56 65 -1
56 67 1
56 69 1
56 71 -1
56 72 -1
56 75 1
56 76 1
56 83 1
56 84 -1
56 86 -1
56 93 1
56 100 -1
56 114 -1
56 122 -1
56 127 -1
56 137 -1
56 139 -1
56 140 1
56 142 -1
56 146 -1
57 61 1
57 63 -1
57 68 1
57 70 1
57 81 -1
57 87 1
57 90 1
57 91 -1
57 93 -1
57 99 -1
57 101 -1
57 103 -1
57 104 -1
57 110 1
57 114 -1
57 115 -1
57 119 1
57 122 -1
57 131 1
57 149 1
58 62 -1
58 71 -1
58 78 1
58 80 -1
58 84 1
58 85 -1
58 91 1
58 104 -1
58 116 -1
58 117 1
58 120 -1
58 121 -1
58 124 1
58 133 -1
58 134 1
58 139 -1
58 140 1
58 149 1
59 63 1
59 65 -1
59 66 -1
59 68 -1
59 69 -1
59 70 1
59 76 -1
59 77 1
59 83 1
59 84 -1
59 85 1
59 90 1
59 94 -1
59 98 -1
59 99 -1
59 102 1
59 105 -1
59 107 -1
59 110 -1
59 124 -1
59 131 1
59 136 -1
59 137 -1
59 138 -1
59 149 1
59 150 -1
60 67 -1
60 69 1
60 86 -1
60 89 1
60 103 1
60 104 1
60 120 -1
60 123 1
60 126 1
60 129 -1
60 132 -1
60 135 1
60 138 1
60 140 -1
60 145 -1
60 146 -1
60 149 1
61 63 1
61 65 1
61 69 -1
61 77 -1
61 84 1
61 87 1
61 88 1
61 89 -1
61 92 1
61 99 1
61 104 1
61 105 1
61 108 -1
61 110 -1
61 111 -1
61 121 -1
61 130 -1
61 134 1
61 135 -1
61 139 -1
61 140 -1
61 145 1
62 66 -1
62 67 -1
62 72 -1
62 76 1
62 78 -1
62 80 1
62 86 1
62 88 -1
62 89 -1
62 92 -1
62 97 -1
62 99 -1
62 107 -1
62 108 -1
62 118 -1
62 122 -1
62 125 -1
62 129 -1
62 132 1
62 135 1
62 136 1
62 138 -1
62 147 1
62 148 1
63 75 1
63 88 -1
63 91 -1
63 94 1
63 97 -1
63 100 -1
63 101 -1
63 104 -1
63 112 -1
63 119 -1
63 120 -1
63 122 1
63 124 -1
63 125 -1
63 127 -1
63 138 1
63 140 1
63 145 -1
63 146 -1
63 149 1
64 67 -1
64 70 1
64 72 -1
64 77 -1
64 78 1
64 84 -1
64 104 1
64 111 -1
64 146 -1
64 148 -1
64 149 -1
65 70 -1
65 84 1
65 89 -1
65 90 -1
65 91 1
65 93 1
65 95 -1
65 97 1
65 100 -1
65 101 -1
65 111 1
65 114 1
65 122 -1
65 134 -1
65 142 1
65 144 1
65 146 -1
66 67 -1
66 68 1
66 69 1
66 79 1
66 80 1
66 83 1
66 90 -1
66 94 1
66 99 1
66 102 -1
66 103 -1
66 105 -1
66 106 1
66 112 -1
66 116 -1
66 118 -1
66 120 -1
66 121 1
66 126 -1
66 131 1
66 133 1
66 134 1
66 138 1
66 141 1
66 142 -1
66 145 -1
66 149 1
66 150 1
67 73 1
67 77 -1
67 80 -1
67 84 -1
67 85 1
67 86 -1
67 88 -1
67 89 -1
67 104 1
67 109 -1
67 112 1
67 113 -1
67 119 1
67 123 -1
67 126 1
67 134 -1
67 139 1
67 146 -1
67 147 -1
68 71 1
68 73 -1
68 74 1
68 76 -1
68 83 1
68 86 1
68 89 1
68 95 -1
68 97 -1
68 99 1
68 103 -1
68 105 -1
68 108 -1
68 112 1
68 115 1
68 119 1
68 120 1
68 122 1
68 123 -1
68 126 -1
68 128 -1
68 133 1
68 137 1
68 138 -1
68 139 -1
68 141 1
68 146 1
69 87 1
69 89 -1
69 90 1
69 93 1
69 103 1
69 108 -1
69 109 1
69 110 -1
69 113 -1
69 117 -1
69 118 1
69 119 1
69 123 -1
69 124 -1
69 125 -1
69 127 -1
69 129 1
69 134 -1
69 135 -1
69 141 1
69 143 1
69 145 -1
69 150 -1
70 77 -1
70 78 -1
70 81 1
70 84 -1
70 97 -1
70 98 1
70 99 -1
70 108 -1
70 110 -1
70 119 -1
70 120 -1
70 123 -1
70 125 -1
70 126 -1
70 130 1
70 132 -1
70 134 -1
70 135 -1
70 138 -1
70 139 1
71 73 -1
71 74 1
71 79 -1
71 80 1
71 86 -1
71 87 1
71 88 -1
71 93 1
71 96 -1
71 101 1
71 104 1
71 108 1
71 115 -1
71 129 1
71 131 1
71 132 -1
71 136 -1
71 143 -1
71 144 -1
71 146 1
72 74 -1
72 77 -1
72 78 -1
72 85 -1
72 95 -1
72 100 -1
72 109 -1
72 117 -1
72 123 -1
72 127 -1
72 133 -1
72 138 1
72 141 1
72 143 -1
72 146 1
72 148 -1
73 75 -1
73 80 -1
73 91 1
73 96 1
73 102 -1
73 104 1
73 117 -1
73 118 1
73 121 -1
73 123 -1
73 124 1
73 134 1
73 144 1
73 146 1
73 148 -1
74 78 -1
74 81 -1
74 84 1
74 85 1
74 86 -1
74 88 -1
74 95 -1
74 97 -1
74 98 -1
74 110 1
74 116 1
74 117 1
74 118 -1
74 120 1
74 126 1
74 129 -1
74 134 -1
74 141 -1
74 142 -1
74 147 1
74 150 1
75 76 -1
75 83 1
75 87 1
75 88 1
75 91 1
75 96 -1
75 98 -1
75 99 1
75 104 -1
75 110 1
75 119 -1
75 125 1
75 136 1
75 140 1
76 79 -1
76 89 -1
76 90 -1
76 95 1
76 96 1
76 97 1
76 99 1
76 105 1
76 109 -1
76 122 -1
76 123 1
76 138 -1
76 146 1
76 149 1
77 82 -1
77 88 1
77 99 -1
77 106 -1
77 112 1
77 116 -1
77 119 -1
77 122 1
77 124 -1
77 129 1
77 131 1
77 134 -1
77 138 1
77 144 1
77 150 1
78 86 1
78 92 -1
78 100 1
78 102 1
78 114 1
78 115 -1
78 117 -1
78 118 1
78 120 1
78 145 -1
78 146 1
78 148 1
79 80 -1
79 81 1
79 82 -1
79 88 1
79 92 -1
79 98 -1
79 99 1
79 107 1
79 112 1
79 113 1
79 115 -1
79 120 1
79 124 -1
79 126 1
79 127 -1
79 128 1
79 134 -1
79 135 -1
79 139 1
79 148 -1
80 83 1
80 86 1
80 87 1
80 91 -1
80 92 1
80 94 1
80 95 1
80 102 -1
80 108 -1
80 109 1
80 120 -1
80 121 1
80 122 -1
80 125 -1
80 128 1
80 130 1
80 133 -1
80 137 1
80 139 -1
80 141 1
80 144 1
80 146 1
80 147 -1
80 150 1
81 83 1
81 84 -1
81 86 -1
81 92 1
81 93 1
81 101 1
81 111 -1
81 115 -1
81 117 -1
81 124 1
81 128 1
81 136 1
81 139 1
81 140 1
81 142 -1
81 145 -1
81 146 -1
81 147 1
81 148 1
81 150 -1
82 85 1
82 88 1
82 89 -1
82 90 1
82 98 1
82 107 1
82 110 -1
82 112 -1
82 119 -1
82 122 -1
82 124 -1
82 130 1
82 135 1
82 136 1
82 139 1
82 140 1
82 142 1
82 143 -1
82 148 1
83 84 1
83 85 -1
83 91 1
83 92 1
83 94 1
83 95 -1
83 100 -1
83 102 1
83 106 -1
83 108 -1
83 111 -1
83 114 1
83 122 1
83 123 -1
83 132 1
83 137 1
83 142 1
83 143 1
83 149 -1
83 150 -1
84 85 1
84 94 1
84 95 -1
84 105 1
84 112 -1
84 116 1
84 121 1
84 126 -1
84 128 1
84 129 -1
84 131 1
84 133 -1
84 134 -1
84 137 -1
84 146 1
84 148 1
85 87 -1
85 103 -1
85 106 -1
85 108 -1
85 117 1
85 123 1
85 127 -1
85 128 -1
85 133 -1
85 137 1
85 142 -1
85 143 -1
86 87 1
86 88 1
86 89 1
86 90 1
86 91 1
86 97 1
86 98 1
86 100 -1
86 104 1
86 108 -1
86 109 -1
86 110 1
86 113 -1
86 116 1
86 117 1
86 120 -1
86 121 -1
86 126 1
86 128 -1
86 130 1
86 132 1
86 133 -1
86 134 1
86 139 1
86 144 -1
86 145 1
86 146 -1
86 150 1
87 88 -1
87 92 -1
87 99 1
87 101 -1
87 103 1
87 104 1
87 105 1
87 107 1
87 115 -1
87 125 1
87 126 -1
87 127 -1
87 128 -1
87 129 1
87 134 1
87 135 1
87 141 1
87 145 -1
87 146 -1
87 148 1
88 90 1
88 105 -1
88 107 1
88 111 -1
88 114 -1
88 116 -1
88 122 1
88 131 -1
88 135 -1
88 136 -1
89 100 -1
89 101 -1
89 112 1
89 117 -1
89 118 -1
89 123 1
89 124 -1
89 125 -1
89 138 1
89 140 1
89 142 -1
89 147 -1
90 94 1
90 95 -1
90 99 1
90 100 -1
90 101 1
90 103 -1
90 109 -1
90 112 1
90 113 1
90 116 1
90 118 -1
90 119 -1
90 120 1
90 123 -1
90 135 -1
90 136 -1
90 137 -1
90 145 -1
90 146 1
90 149 1
91 92 -1
91 96 -1
91 104 -1
91 107 1
91 109 1
91 116 1
91 124 1
91 132 1
91 137 -1
91 143 1
91 144 -1
91 145 1
91 148 1
91 150 1
92 103 1
92 107 1
92 116 -1
92 119 1
92 125 -1
92 126 1
92 131 -1
92 135 1
92 136 -1
92 140 -1
92 145 -1
93 94 -1
93 95 -1
93 97 1
93 98 1
93 100 1
93 102 -1
93 105 1
93 125 -1
93 126 -1
93 130 1
93 133 -1
93 144 1
94 97 1
94 102 1
94 104 1
94 115 1
94 120 -1
94 132 1
94 133 1
94 138 -1
94 139 -1
95 103 -1
95 109 1
95 111 1
95 113 -1
95 126 -1
95 132 -1
95 133 -1
95 149 -1
96 102 -1
96 107 -1
96 109 1
96 110 1
96 112 1
96 114 -1
96 115 1
96 116 -1
96 121 -1
96 123 -1
96 130 -1
96 136 1
96 144 1
97 98 1
97 99 1
97 110 -1
97 111 1
97 127 1
97 129 1
97 132 1
97 135 1
97 139 -1
97 144 1
97 145 1
97 147 1
97 148 -1
97 149 -1
98 105 1
98 109 -1
98 111 -1
98 113 -1
98 118 -1
98 121 -1
98 126 1
98 128 1
98 131 -1
98 137 -1
98 142 -1
98 143 -1
98 146 -1
98 148 1
98 150 -1
99 101 -1
99 112 -1
99 128 -1
99 133 -1
99 136 1
99 143 1
100 101 1
100 102 -1
100 106 -1
100 107 1
100 110 1
100 113 -1
100 115 -1
100 117 1
100 120 1
100 123 1
100 127 1
100 128 -1
100 135 -1
100 139 1
100 144 1
100 146 1
100 150 1
101 102 -1
101 104 1
101 107 -1
101 110 1
101 111 1
101 113 -1
101 118 -1
101 119 -1
101 126 -1
101 129 -1
101 130 -1
101 141 1
101 142 1
101 150 1
102 103 -1
102 106 1
102 107 -1
102 112 -1
102 117 1
102 118 -1
102 120 1
102 123 1
102 124 -1
102 134 1
102 141 -1
102 142 1
102 150 -1
103 105 -1
103 110 -1
103 116 1
103 121 1
103 126 1
103 127 -1
103 129 -1
103 130 1
103 134 -1
103 135 1
103 137 -1
103 144 -1
103 145 1
103 148 -1
104 105 1
104 106 -1
104 107 -1
104 111 -1
104 112 -1
104 113 1
104 123 1
104 126 -1
104 129 -1
104 132 -1
104 135 1
104 138 -1
104 144 -1
104 148 1
104 150 -1
105 106 -1
105 108 1
105 121 -1
105 122 1
105 128 1
105 134 1
105 137 -1
105 140 1
105 148 -1
106 108 -1
106 111 1
106 115 1
106 116 -1
106 118 1
106 119 1
106 121 -1
106 131 1
106 132 -1
106 133 1
106 134 1
106 139 -1
106 140 1
106 147 -1
107 108 -1
107 109 1
107 110 1
107 113 -1
107 114 -1
107 124 1
107 125 -1
107 127 -1
107 131 1
107 135 -1
107 136 -1
107 147 -1
107 149 -1
108 118 -1
108 124 1
108 130 1
108 133 -1
108 134 -1
108 135 -1
108 137 -1
108 141 1
108 150 -1
109 111 -1
109 116 -1
109 126 -1
109 127 1
109 131 -1
110 113 1
110 116 1
110 118 1
110 119 -1
110 120 1
110 122 1
110 128 1
110 129 -1
110 130 -1
110 133 1
110 135 -1
110 137 1
110 143 -1
110 144 1
110 146 1
110 148 1
111 113 -1
111 116 -1
111 117 1
111 123 -1
111 125 -1
111 131 -1
111 136 1
112 115 -1
112 119 1
112 122 1
112 127 1
112 128 -1
112 132 -1
112 133 1
112 137 1
112 139 1
112 140 1
112 141 -1
112 144 -1
112 145 -1
112 147 -1
113 116 1
113 120 1
113 122 1
113 127 -1
113 128 -1
113 130 -1
113 132 -1
113 134 1
113 146 -1
113 148 -1
114 118 -1
114 122 1
114 124 1
114 130 1
114 133 -1
114 137 1
114 140 1
114 142 -1
114 143 1
114 145 1
114 147 -1
114 149 1
115 119 1
115 127 1
115 129 -1
115 130 -1
115 131 -1
115 137 1
115 138 1
115 140 -1
115 141 -1
115 143 -1
115 144 1
116 117 1
116 120 -1
116 121 -1
116 124 -1
116 126 -1
116 128 -1
116 131 -1
116 137 -1
116 138 1
116 140 1
117 121 1
117 126 -1
117 134 -1
117 138 -1
117 139 -1
117 140 1
117 148 -1
117 150 -1
118 125 -1
118 127 1
118 129 1
118 131 -1
118 135 1
118 141 1
118 144 -1
118 146 1
119 121 1
119 126 1
119 134 1
119 142 1
119 147 1
119 149 -1
120 130 1
120 134 1
120 140 -1
121 123 -1
121 126 -1
121 129 1
121 131 -1
121 132 -1
121 137 1
121 138 -1
121 139 -1
121 140 1
121 149 1
122 130 1
122 131 1
122 134 1
122 138 1
122 140 -1
122 144 -1
122 145 1
122 150 1
123 125 1
123 132 1
123 136 1
124 133 1
124 135 1
124 136 -1
124 144 1
124 147 -1
124 150 1
125 127 1
125 130 -1
125 137 -1
125 142 1
125 145 -1
125 149 -1
126 131 1
126 132 1
126 133 1
126 139 1
126 143 1
126 146 1
126 148 -1
126 149 1
127 132 1
127 136 -1
127 138 1
127 140 -1
128 131 -1
128 135 1
128 136 -1
128 137 1
128 144 -1
128 149 -1
129 134 -1
129 137 1
129 141 1
129 144 -1
129 146 -1
129 150 -1
130 136 1
130 137 1
130 139 1
130 150 1
131 134 -1
131 137 1
131 140 1
131 143 -1
131 145 -1
131 146 1
131 148 1
131 149 -1
132 136 1
132 147 1
132 148 -1
133 138 -1
133 139 1
133 142 1
133 144 -1
133 146 -1
133 147 -1
134 136 -1
134 143 1
134 150 1
135 142 -1
135 143 1
135 148 1
136 137 1
136 138 1
136 139 1
136 148 1
136 149 1
137 144 -1
137 146 1
137 147 1
138 150 -1
139 140 -1
139 143 -1
139 145 -1
140 144 1
141 144 -1
141 146 1
141 147 -1
143 144 1
143 147 1
143 148 -1
143 150 -1
146 148 1
146 149 1
147 148 1
147 150 1
